c File: data_files/evolved_graphs/g8162.col
c
c Auto generated graph
c
p edge 100 787
e 1 4
e 1 6
e 1 15
e 1 25
e 1 30
e 1 47
e 1 50
e 1 54
e 1 58
e 1 69
e 1 72
e 1 80
e 1 90
e 1 91
e 2 7
e 2 17
e 2 23
e 2 24
e 2 29
e 2 59
e 2 66
e 2 76
e 2 77
e 2 80
e 2 81
e 2 83
e 2 84
e 2 87
e 2 91
e 3 21
e 3 22
e 3 33
e 3 36
e 3 37
e 3 42
e 3 50
e 3 51
e 3 56
e 3 58
e 3 59
e 3 62
e 3 65
e 3 69
e 3 79
e 3 86
e 4 10
e 4 25
e 4 30
e 4 38
e 4 41
e 4 49
e 4 51
e 4 53
e 4 55
e 4 56
e 4 57
e 4 58
e 4 59
e 4 95
e 4 96
e 5 11
e 5 16
e 5 23
e 5 28
e 5 35
e 5 37
e 5 41
e 5 45
e 5 58
e 5 61
e 5 63
e 5 64
e 5 71
e 5 79
e 5 83
e 5 92
e 6 9
e 6 31
e 6 32
e 6 34
e 6 44
e 6 50
e 6 52
e 6 56
e 6 63
e 6 64
e 6 72
e 6 78
e 6 92
e 6 93
e 6 94
e 7 12
e 7 24
e 7 27
e 7 34
e 7 42
e 7 48
e 7 53
e 7 54
e 7 55
e 7 62
e 7 66
e 7 77
e 7 82
e 8 13
e 8 27
e 8 33
e 8 52
e 8 62
e 8 63
e 8 67
e 8 74
e 8 75
e 8 90
e 8 91
e 8 96
e 8 100
e 9 13
e 9 14
e 9 22
e 9 37
e 9 38
e 9 55
e 9 61
e 9 66
e 9 68
e 9 70
e 9 73
e 9 75
e 9 80
e 9 89
e 9 93
e 10 18
e 10 31
e 10 32
e 10 40
e 10 64
e 10 65
e 10 71
e 10 73
e 10 75
e 10 81
e 10 97
e 10 99
e 11 14
e 11 29
e 11 35
e 11 36
e 11 43
e 11 53
e 11 55
e 11 68
e 11 70
e 11 81
e 11 83
e 11 86
e 11 87
e 11 88
e 11 99
e 12 13
e 12 25
e 12 26
e 12 27
e 12 37
e 12 40
e 12 43
e 12 48
e 12 57
e 12 58
e 12 60
e 12 69
e 12 70
e 12 72
e 12 78
e 12 83
e 12 92
e 12 99
e 13 24
e 13 28
e 13 32
e 13 40
e 13 48
e 13 49
e 13 52
e 13 66
e 13 67
e 13 68
e 13 86
e 13 91
e 13 92
e 13 93
e 14 15
e 14 19
e 14 29
e 14 32
e 14 34
e 14 39
e 14 41
e 14 42
e 14 43
e 14 44
e 14 49
e 14 65
e 14 78
e 14 90
e 15 22
e 15 23
e 15 28
e 15 29
e 15 40
e 15 44
e 15 45
e 15 57
e 15 60
e 15 62
e 15 65
e 15 68
e 15 72
e 15 74
e 15 84
e 15 87
e 15 89
e 15 91
e 15 97
e 16 23
e 16 24
e 16 30
e 16 33
e 16 35
e 16 37
e 16 49
e 16 54
e 16 69
e 16 71
e 16 72
e 16 75
e 16 78
e 16 82
e 16 87
e 16 88
e 16 92
e 16 100
e 17 21
e 17 24
e 17 31
e 17 39
e 17 56
e 17 57
e 17 58
e 17 70
e 17 80
e 17 82
e 17 83
e 17 85
e 17 88
e 17 89
e 18 25
e 18 26
e 18 31
e 18 54
e 18 55
e 18 61
e 18 74
e 18 76
e 18 78
e 18 79
e 18 82
e 18 86
e 18 92
e 19 23
e 19 29
e 19 32
e 19 38
e 19 46
e 19 58
e 19 61
e 19 62
e 19 70
e 19 79
e 19 84
e 19 86
e 19 88
e 19 94
e 19 95
e 20 22
e 20 38
e 20 39
e 20 47
e 20 64
e 20 66
e 20 73
e 20 74
e 20 79
e 20 85
e 20 88
e 20 91
e 20 92
e 20 94
e 20 96
e 21 23
e 21 25
e 21 28
e 21 30
e 21 39
e 21 40
e 21 42
e 21 53
e 21 62
e 21 64
e 21 66
e 21 79
e 21 90
e 22 29
e 22 30
e 22 42
e 22 43
e 22 44
e 22 48
e 22 52
e 22 55
e 22 61
e 22 71
e 22 85
e 22 88
e 22 89
e 23 40
e 23 41
e 23 55
e 23 66
e 23 69
e 23 75
e 23 78
e 23 82
e 23 86
e 23 96
e 23 98
e 24 31
e 24 45
e 24 51
e 24 52
e 24 61
e 24 65
e 24 67
e 24 72
e 24 75
e 24 77
e 24 78
e 24 79
e 25 29
e 25 40
e 25 41
e 25 42
e 25 52
e 25 54
e 25 72
e 25 77
e 25 79
e 25 85
e 25 90
e 26 27
e 26 29
e 26 36
e 26 45
e 26 46
e 26 47
e 26 51
e 26 52
e 26 80
e 26 84
e 26 97
e 26 98
e 27 33
e 27 34
e 27 45
e 27 46
e 27 49
e 27 61
e 27 65
e 27 69
e 27 72
e 27 81
e 27 85
e 27 97
e 28 32
e 28 41
e 28 42
e 28 44
e 28 45
e 28 46
e 28 48
e 28 49
e 28 51
e 28 56
e 28 63
e 28 73
e 28 74
e 28 83
e 28 84
e 29 32
e 29 35
e 29 43
e 29 59
e 29 69
e 29 79
e 29 84
e 29 85
e 29 100
e 30 33
e 30 34
e 30 35
e 30 47
e 30 49
e 30 67
e 30 70
e 30 79
e 30 82
e 30 83
e 30 84
e 31 33
e 31 35
e 31 46
e 31 50
e 31 57
e 31 65
e 31 66
e 31 69
e 31 87
e 31 98
e 32 34
e 32 37
e 32 54
e 32 59
e 32 60
e 32 64
e 32 67
e 32 80
e 32 82
e 32 97
e 33 43
e 33 57
e 33 59
e 33 74
e 33 76
e 33 79
e 33 89
e 33 94
e 34 41
e 34 45
e 34 52
e 34 53
e 34 60
e 34 73
e 34 82
e 34 84
e 34 93
e 34 98
e 34 99
e 35 40
e 35 44
e 35 51
e 35 54
e 35 61
e 35 66
e 35 72
e 35 73
e 35 77
e 35 95
e 35 96
e 35 97
e 35 100
e 36 42
e 36 49
e 36 55
e 36 60
e 36 63
e 36 66
e 36 67
e 36 69
e 36 75
e 36 76
e 36 79
e 36 94
e 36 95
e 36 98
e 37 38
e 37 39
e 37 51
e 37 57
e 37 64
e 37 77
e 37 84
e 37 87
e 37 89
e 37 91
e 37 95
e 37 97
e 37 99
e 38 40
e 38 42
e 38 46
e 38 59
e 38 60
e 38 65
e 38 70
e 38 83
e 38 94
e 38 96
e 38 99
e 38 100
e 39 44
e 39 50
e 39 62
e 39 79
e 39 80
e 39 91
e 39 92
e 39 95
e 40 44
e 40 48
e 40 77
e 40 94
e 40 97
e 40 99
e 40 100
e 41 47
e 41 48
e 41 63
e 41 66
e 41 85
e 41 89
e 42 54
e 42 64
e 42 68
e 42 83
e 42 98
e 43 45
e 43 51
e 43 56
e 43 76
e 43 78
e 43 87
e 43 93
e 43 99
e 44 49
e 44 51
e 44 63
e 44 64
e 44 74
e 44 75
e 44 77
e 44 83
e 44 86
e 44 92
e 45 54
e 45 61
e 45 62
e 45 64
e 45 79
e 45 93
e 45 99
e 46 50
e 46 70
e 46 85
e 46 92
e 46 98
e 46 99
e 47 48
e 47 53
e 47 64
e 47 67
e 47 77
e 47 78
e 47 83
e 47 92
e 47 100
e 48 49
e 48 50
e 48 62
e 48 67
e 48 81
e 48 88
e 49 69
e 49 81
e 49 82
e 50 53
e 50 68
e 50 75
e 50 78
e 50 79
e 50 80
e 50 82
e 50 83
e 50 95
e 50 99
e 51 52
e 51 58
e 51 69
e 51 70
e 51 73
e 51 74
e 51 78
e 51 90
e 51 95
e 51 96
e 52 68
e 52 78
e 52 84
e 52 88
e 52 91
e 52 94
e 53 58
e 53 60
e 53 61
e 53 62
e 53 66
e 53 68
e 53 71
e 53 74
e 53 75
e 53 90
e 54 62
e 54 66
e 54 88
e 54 91
e 54 98
e 54 100
e 55 62
e 55 83
e 55 95
e 55 99
e 56 62
e 56 68
e 56 87
e 56 93
e 56 94
e 56 95
e 56 97
e 56 100
e 57 64
e 57 69
e 57 86
e 57 93
e 57 95
e 57 98
e 58 65
e 58 70
e 58 71
e 58 80
e 58 91
e 58 99
e 58 100
e 59 69
e 59 72
e 59 74
e 59 92
e 60 61
e 60 63
e 60 65
e 60 76
e 60 82
e 60 88
e 60 93
e 60 96
e 60 97
e 61 62
e 61 76
e 61 95
e 62 70
e 62 85
e 62 87
e 62 90
e 62 100
e 63 70
e 63 75
e 63 76
e 63 85
e 63 89
e 64 81
e 65 67
e 65 72
e 65 79
e 65 83
e 65 88
e 65 97
e 66 70
e 66 74
e 66 91
e 66 97
e 66 98
e 67 72
e 67 76
e 67 80
e 67 89
e 67 96
e 67 100
e 68 70
e 68 72
e 68 73
e 68 78
e 68 82
e 68 94
e 69 73
e 69 82
e 69 90
e 69 94
e 70 73
e 70 78
e 70 81
e 70 85
e 71 75
e 71 80
e 71 81
e 71 89
e 71 90
e 71 92
e 71 93
e 71 94
e 71 95
e 71 98
e 72 74
e 72 81
e 72 88
e 72 95
e 73 75
e 73 76
e 73 79
e 73 90
e 74 89
e 74 90
e 74 98
e 74 99
e 75 80
e 75 88
e 76 86
e 76 91
e 76 95
e 76 99
e 77 83
e 77 85
e 77 86
e 77 88
e 77 89
e 77 90
e 77 94
e 78 83
e 78 95
e 78 100
e 79 84
e 79 93
e 79 96
e 80 89
e 80 96
e 81 84
e 81 87
e 81 90
e 82 85
e 82 94
e 82 96
e 83 88
e 83 90
e 83 93
e 84 87
e 84 95
e 84 98
e 84 100
e 85 92
e 85 97
e 86 88
e 86 92
e 86 96
e 86 98
e 86 99
e 87 90
e 87 92
e 87 96
e 89 98
e 90 91
e 90 93
e 90 96
e 91 97
e 92 93
e 93 98
e 93 100
e 95 98
e 98 99
e 98 100
e 99 100
